program_setup_time=600;
sequence_setup_time=300;
max_colors_per_job=2;
min_cycles_per_job=2;
max_cycles_per_job=30;
max_jobs=50;
num_colors=5;
num_programs=1;
num_moulds=11;
num_demands=15;
num_lines=3;
reference_makespan=51060;
reference_tardiness=1487131;
reference_waste=55;
available_moulds=[4,6,6,8,8,12,6,8,4,4,4];
slots_per_program=[7];
cycle_time_for_program=[3060];
program_for_mould=[1,1,1,1,1,1,1,1,1,1,1];
line_for_mould=[1,1,1,2,2,2,1,2,1,3,1];
color_compatibility=array2d(colors, colors, [1,1,1,0,1,1,1,0,0,0,1,0,1,0,0,0,0,0,1,0,1,0,0,0,1]);
demand_qty=[3,1,1,2,5,4,1,4,19,1,10,1,1,2,2];
demand_duedate=[-167564,-167564,-167564,-167564,-167564,-167564,-167564,-50436,-50436,27649,27649,27649,27649,27649,261906];
demand_color=[1,2,3,4,1,1,4,5,5,4,5,2,4,4,3];
demand_mould=[1,2,2,3,4,5,6,7,8,3,7,1,9,10,11];
